(declare-const r Relation)
(declare-fun p1 (World) Bool)
(declare-fun p2 (World) Bool)
(declare-fun p3 (World) Bool)
(declare-fun p4 (World) Bool)
(declare-fun p5 (World) Bool)
(declare-fun p6 (World) Bool)
(declare-fun p7 (World) Bool)
(declare-fun p8 (World) Bool)
(declare-fun p9 (World) Bool)
(declare-fun p10 (World) Bool)
(declare-fun p11 (World) Bool)
(declare-fun p12 (World) Bool)
(declare-fun p13 (World) Bool)
(declare-fun p14 (World) Bool)
(declare-fun p15 (World) Bool)
(declare-fun p16 (World) Bool)
(declare-fun p17 (World) Bool)
(declare-fun p18 (World) Bool)
(declare-fun p19 (World) Bool)
(declare-fun p20 (World) Bool)
(declare-fun p21 (World) Bool)
(declare-fun p22 (World) Bool)
(declare-fun p24 (World) Bool)
(declare-fun p26 (World) Bool)
(declare-fun p28 (World) Bool)
(declare-fun p30 (World) Bool)
(declare-fun p32 (World) Bool)
(declare-fun p34 (World) Bool)
(declare-fun p36 (World) Bool)
(declare-fun p38 (World) Bool)
(declare-fun p40 (World) Bool)
(assert (not (or (or (box r (box r (box r (box r (box r (box r (box r (box r (box r (box r (box r (box r (box r (box r (box r (box r (box r (box r (box r (box r (and (and (and (and (and (and (and (and (and (and (and (and (and (and (and (and (and (and (and (p1 world) (p2 world)) (p3 world)) (p4 world)) (p5 world)) (p6 world)) (p7 world)) (p8 world)) (p9 world)) (p10 world)) (p11 world)) (p12 world)) (p13 world)) (p14 world)) (p15 world)) (p16 world)) (p17 world)) (p18 world)) (p19 world)) (p20 world)))))))))))))))))))))) (or (dia r (or (or (dia r (or (or (dia r (or (or (dia r (or (or (dia r (or (or (dia r (or (or (dia r (or (or (dia r (or (or (dia r (or (or (dia r (or (or (dia r (or (or (dia r (or (or (dia r (or (or (dia r (or (or (dia r (or (or (dia r (or (or (dia r (or (or (dia r (or (or (dia r (or false (dia r (= (p1 world) (p2 world))))) (box r (p3 world))) (dia r (dia r (= (p2 world) (p3 world)))))) (box r (p4 world))) (dia r (dia r (dia r (= (p3 world) (p4 world))))))) (box r (p5 world))) (dia r (dia r (dia r (dia r (= (p4 world) (p5 world)))))))) (box r (p6 world))) (dia r (dia r (dia r (dia r (dia r (= (p5 world) (p6 world))))))))) (box r (p7 world))) (dia r (dia r (dia r (dia r (dia r (dia r (= (p6 world) (p7 world)))))))))) (box r (p8 world))) (dia r (dia r (dia r (dia r (dia r (dia r (dia r (= (p7 world) (p8 world))))))))))) (box r (p9 world))) (dia r (dia r (dia r (dia r (dia r (dia r (dia r (dia r (= (p8 world) (p9 world)))))))))))) (box r (p10 world))) (dia r (dia r (dia r (dia r (dia r (dia r (dia r (dia r (dia r (= (p9 world) (p10 world))))))))))))) (box r (p11 world))) (dia r (dia r (dia r (dia r (dia r (dia r (dia r (dia r (dia r (dia r (= (p10 world) (p11 world)))))))))))))) (box r (p12 world))) (dia r (dia r (dia r (dia r (dia r (dia r (dia r (dia r (dia r (dia r (dia r (= (p11 world) (p12 world))))))))))))))) (box r (p13 world))) (dia r (dia r (dia r (dia r (dia r (dia r (dia r (dia r (dia r (dia r (dia r (dia r (= (p12 world) (p13 world)))))))))))))))) (box r (p14 world))) (dia r (dia r (dia r (dia r (dia r (dia r (dia r (dia r (dia r (dia r (dia r (dia r (dia r (= (p13 world) (p14 world))))))))))))))))) (box r (p15 world))) (dia r (dia r (dia r (dia r (dia r (dia r (dia r (dia r (dia r (dia r (dia r (dia r (dia r (dia r (= (p14 world) (p15 world)))))))))))))))))) (box r (p16 world))) (dia r (dia r (dia r (dia r (dia r (dia r (dia r (dia r (dia r (dia r (dia r (dia r (dia r (dia r (dia r (= (p15 world) (p16 world))))))))))))))))))) (box r (p17 world))) (dia r (dia r (dia r (dia r (dia r (dia r (dia r (dia r (dia r (dia r (dia r (dia r (dia r (dia r (dia r (dia r (= (p16 world) (p17 world)))))))))))))))))))) (box r (p18 world))) (dia r (dia r (dia r (dia r (dia r (dia r (dia r (dia r (dia r (dia r (dia r (dia r (dia r (dia r (dia r (dia r (dia r (= (p17 world) (p18 world))))))))))))))))))))) (box r (p19 world))) (dia r (dia r (dia r (dia r (dia r (dia r (dia r (dia r (dia r (dia r (dia r (dia r (dia r (dia r (dia r (dia r (dia r (dia r (= (p18 world) (p19 world)))))))))))))))))))))) (box r (p20 world))) (dia r (dia r (dia r (dia r (dia r (dia r (dia r (dia r (dia r (dia r (dia r (dia r (dia r (dia r (dia r (dia r (dia r (dia r (dia r (= (p19 world) (p1 world))))))))))))))))))))))) (box r (p21 world)))) (box r (box r (box r (box r (box r (box r (box r (box r (box r (box r (box r (box r (box r (box r (box r (box r (box r (box r (box r (box r (and (and (and (and (and (and (and (and (and (and (and (and (and (and (and (and (and (and (and (not (p2 world)) (not (p4 world))) (not (p6 world))) (not (p8 world))) (not (p10 world))) (not (p12 world))) (not (p14 world))) (not (p16 world))) (not (p18 world))) (not (p20 world))) (not (p22 world))) (not (p24 world))) (not (p26 world))) (not (p28 world))) (not (p30 world))) (not (p32 world))) (not (p34 world))) (not (p36 world))) (not (p38 world))) (not (p40 world))))))))))))))))))))))))))
